# Objective value = 7.6540200000000614e+03
I_0_0 1932
I_0_1 2.2669999999999791e+03
I_0_2 2.2259999999999695e+03
I_0_3 3.0159999999999955e+03
I_1_0 55
I_1_1 0
I_1_2 55
I_1_3 0
I_2_0 126
I_2_1 126
I_2_2 6.3000000000009393e+01
I_2_3 4.0020533543706634e-12
I_3_0 83
I_3_1 1.1579973839948692e-11
I_3_2 8.3000000000011582e+01
I_3_3 0
I_4_0 95
I_4_1 95
I_4_2 95
I_4_3 2.0864373583525090e-12
I_5_0 104
I_5_1 104
I_5_2 5.2000000000000050e+01
I_5_3 -1.0658141036401503e-13
I_6_0 22
I_6_1 2.2000000000009280e+01
I_6_2 1.0999999999990752e+01
I_6_3 -1.1353239050413696e-11
I_7_0 142
I_7_1 1.4199999999999997e+02
I_7_2 71
I_7_3 9.6811783892292837e-12
I_8_0 116
I_8_1 58
I_8_2 1.1600000000000126e+02
I_8_3 5.8000000000001279e+01
I_9_0 68
I_9_1 68
I_9_2 34
I_9_3 0
I_10_0 126
I_10_1 1.2600000000000009e+02
I_10_2 6.3000000000000071e+01
I_10_3 0
I_11_0 36
I_11_1 36
I_11_2 36
I_11_3 0
I_12_0 83
I_12_1 0
I_12_2 83
I_12_3 0
I_13_0 10
I_13_1 8.0097222106962309e-13
I_13_2 1.0000000000000522e+01
I_13_3 -1.1686914007416552e-12
I_14_0 30
I_14_1 30
I_14_2 30
I_14_3 0
I_15_0 46
I_15_1 0
I_15_2 4.6000000000017479e+01
I_15_3 0
q_1_0_0 0
q_1_0_1 0
q_1_0_2 0
q_1_1_0 0
q_1_1_1 110
q_1_1_2 0
q_1_2_0 0
q_1_2_1 0
q_1_2_2 0
q_1_3_0 0
q_1_3_1 0
q_1_3_2 0
q_1_4_0 0
q_1_4_1 0
q_1_4_2 0
q_2_0_0 63
q_2_0_1 0
q_2_0_2 0
q_2_1_0 0
q_2_1_1 0
q_2_1_2 -5.3913216123778610e-12
q_2_2_0 0
q_2_2_1 0
q_2_2_2 0
q_2_3_0 0
q_2_3_1 9.3969276804273250e-12
q_2_3_2 0
q_2_4_0 0
q_2_4_1 0
q_2_4_2 0
q_3_0_0 0
q_3_0_1 0
q_3_0_2 0
q_3_1_0 1.1579973839948692e-11
q_3_1_1 0
q_3_1_2 0
q_3_2_0 0
q_3_2_1 0
q_3_2_2 -1.1581846592889633e-11
q_3_3_0 0
q_3_3_1 166
q_3_3_2 0
q_3_4_0 0
q_3_4_1 0
q_3_4_2 0
q_4_0_0 95
q_4_0_1 95
q_4_0_2 2.09354278571011e-12
q_4_1_0 0
q_4_1_1 0
q_4_1_2 0
q_4_2_0 0
q_4_2_1 0
q_4_2_2 0
q_4_3_0 0
q_4_3_1 0
q_4_3_2 0
q_4_4_0 0
q_4_4_1 0
q_4_4_2 0
q_5_0_0 0
q_5_0_1 0
q_5_0_2 -1.9184653865522705e-13
q_5_1_0 52
q_5_1_1 0
q_5_1_2 -7.1054273576010019e-15
q_5_2_0 0
q_5_2_1 0
q_5_2_2 0
q_5_3_0 0
q_5_3_1 4.9737991503207013e-14
q_5_3_2 1.4210854715202004e-14
q_5_4_0 0
q_5_4_1 0
q_5_4_2 0
q_6_0_0 1.1000000000009280e+01
q_6_0_1 -1.8528819881465390e-11
q_6_0_2 -3.7758207884946803e-13
q_6_1_0 0
q_6_1_1 0
q_6_1_2 -5.3290705182007514e-14
q_6_2_0 0
q_6_2_1 0
q_6_2_2 1.4552656831940991e-12
q_6_3_0 0
q_6_3_1 0
q_6_3_2 0
q_6_4_0 0
q_6_4_1 0
q_6_4_2 -3.12981984306177e-12
q_7_0_0 0
q_7_0_1 0
q_7_0_2 0
q_7_1_0 7.0999999999999957e+01
q_7_1_1 0
q_7_1_2 0
q_7_2_0 0
q_7_2_1 0
q_7_2_2 4.1584681682849239e-12
q_7_3_0 0
q_7_3_1 4.9737991503207013e-14
q_7_3_2 -1.2599749483612833e-11
q_7_4_0 0
q_7_4_1 0
q_7_4_2 1.7989010896997252e-11
q_8_0_0 0
q_8_0_1 0
q_8_0_2 0
q_8_1_0 0
q_8_1_1 1.1600000000000126e+02
q_8_1_2 0
q_8_2_0 0
q_8_2_1 0
q_8_2_2 0
q_8_3_0 0
q_8_3_1 0
q_8_3_2 -2.5626506930874013e-12
q_8_4_0 0
q_8_4_1 0
q_8_4_2 2.5650931837415766e-12
q_9_0_0 34
q_9_0_1 0
q_9_0_2 0
q_9_1_0 0
q_9_1_1 0
q_9_1_2 0
q_9_2_0 0
q_9_2_1 0
q_9_2_2 0
q_9_3_0 0
q_9_3_1 0
q_9_3_2 0
q_9_4_0 0
q_9_4_1 0
q_9_4_2 0
q_10_0_0 0
q_10_0_1 0
q_10_0_2 0
q_10_1_0 6.3000000000000071e+01
q_10_1_1 0
q_10_1_2 -3.0198066269804258e-14
q_10_2_0 0
q_10_2_1 0
q_10_2_2 0
q_10_3_0 0
q_10_3_1 0
q_10_3_2 0
q_10_4_0 0
q_10_4_1 0
q_10_4_2 0
q_11_0_0 0
q_11_0_1 0
q_11_0_2 0
q_11_1_0 36
q_11_1_1 0
q_11_1_2 0
q_11_2_0 0
q_11_2_1 36
q_11_2_2 0
q_11_3_0 0
q_11_3_1 0
q_11_3_2 0
q_11_4_0 0
q_11_4_1 0
q_11_4_2 0
q_12_0_0 0
q_12_0_1 0
q_12_0_2 0
q_12_1_0 0
q_12_1_1 0
q_12_1_2 0
q_12_2_0 0
q_12_2_1 166
q_12_2_2 0
q_12_3_0 0
q_12_3_1 0
q_12_3_2 0
q_12_4_0 0
q_12_4_1 0
q_12_4_2 0
q_13_0_0 0
q_13_0_1 2.0000000000001048e+01
q_13_0_2 -1.8339267658050581e-12
q_13_1_0 8.0097222106962309e-13
q_13_1_1 -1.2671144918284934e-12
q_13_1_2 7.8878319125619123e-13
q_13_2_0 0
q_13_2_1 0
q_13_2_2 0
q_13_3_0 0
q_13_3_1 0
q_13_3_2 0
q_13_4_0 0
q_13_4_1 0
q_13_4_2 0
q_14_0_0 30
q_14_0_1 30
q_14_0_2 0
q_14_1_0 0
q_14_1_1 0
q_14_1_2 0
q_14_2_0 0
q_14_2_1 0
q_14_2_2 0
q_14_3_0 0
q_14_3_1 0
q_14_3_2 0
q_14_4_0 0
q_14_4_1 0
q_14_4_2 0
q_15_0_0 0
q_15_0_1 9.2000000000017479e+01
q_15_0_2 0
q_15_1_0 0
q_15_1_1 0
q_15_1_2 0
q_15_2_0 0
q_15_2_1 0
q_15_2_2 0
q_15_3_0 0
q_15_3_1 0
q_15_3_2 0
q_15_4_0 0
q_15_4_1 0
q_15_4_2 -1.7479351299698465e-11
y_0_0_0 1
y_0_0_1 1
y_0_0_2 -1.27675647831893e-15
y_0_1_0 1
y_0_1_1 1
y_0_1_2 -2.51411260008543e-14
y_0_2_0 0
y_0_2_1 1
y_0_2_2 -2.51411260008543e-14
y_0_3_0 0
y_0_3_1 1
y_0_3_2 -6.4120390699635248e-14
y_0_4_0 0
y_0_4_1 0
y_0_4_2 0
y_1_0_0 0
y_1_0_1 0
y_1_0_2 0
y_1_1_0 0
y_1_1_1 1
y_1_1_2 0
y_1_2_0 0
y_1_2_1 0
y_1_2_2 0
y_1_3_0 0
y_1_3_1 0
y_1_3_2 0
y_1_4_0 0
y_1_4_1 0
y_1_4_2 0
y_2_0_0 1
y_2_0_1 0
y_2_0_2 0
y_2_1_0 0
y_2_1_1 0
y_2_1_2 0
y_2_2_0 0
y_2_2_1 0
y_2_2_2 0
y_2_3_0 0
y_2_3_1 0
y_2_3_2 0
y_2_4_0 0
y_2_4_1 0
y_2_4_2 0
y_3_0_0 0
y_3_0_1 0
y_3_0_2 0
y_3_1_0 1.3951775710781557e-13
y_3_1_1 0
y_3_1_2 0
y_3_2_0 0
y_3_2_1 0
y_3_2_2 0
y_3_3_0 0
y_3_3_1 1
y_3_3_2 0
y_3_4_0 0
y_3_4_1 0
y_3_4_2 0
y_4_0_0 1
y_4_0_1 1
y_4_0_2 0
y_4_1_0 0
y_4_1_1 0
y_4_1_2 0
y_4_2_0 0
y_4_2_1 0
y_4_2_2 0
y_4_3_0 0
y_4_3_1 0
y_4_3_2 2.2101805934218481e-14
y_4_4_0 0
y_4_4_1 0
y_4_4_2 0
y_5_0_0 0
y_5_0_1 0
y_5_0_2 -1.1657341758564144e-15
y_5_1_0 1
y_5_1_1 0
y_5_1_2 0
y_5_2_0 0
y_5_2_1 0
y_5_2_2 0
y_5_3_0 0
y_5_3_1 4.4408920985006262e-16
y_5_3_2 0
y_5_4_0 0
y_5_4_1 0
y_5_4_2 0
y_6_0_0 1.0000000000008435e+00
y_6_0_1 -8.4212004858088924e-13
y_6_0_2 0
y_6_1_0 0
y_6_1_1 0
y_6_1_2 -1.5543122344752192e-15
y_6_2_0 0
y_6_2_1 0
y_6_2_2 0
y_6_3_0 0
y_6_3_1 0
y_6_3_2 0
y_6_4_0 0
y_6_4_1 0
y_6_4_2 0
y_7_0_0 0
y_7_0_1 0
y_7_0_2 0
y_7_1_0 9.9999999999999933e-01
y_7_1_1 0
y_7_1_2 0
y_7_2_0 0
y_7_2_1 0
y_7_2_2 5.8501953494758021e-14
y_7_3_0 0
y_7_3_1 4.4408920985006262e-16
y_7_3_2 -5.9084820582686228e-14
y_7_4_0 0
y_7_4_1 0
y_7_4_2 0
y_8_0_0 0
y_8_0_1 0
y_8_0_2 0
y_8_1_0 0
y_8_1_1 1
y_8_1_2 0
y_8_2_0 0
y_8_2_1 0
y_8_2_2 0
y_8_3_0 0
y_8_3_1 0
y_8_3_2 -2.2101805934218481e-14
y_8_4_0 0
y_8_4_1 0
y_8_4_2 0
y_9_0_0 1
y_9_0_1 0
y_9_0_2 0
y_9_1_0 0
y_9_1_1 0
y_9_1_2 0
y_9_2_0 0
y_9_2_1 0
y_9_2_2 0
y_9_3_0 0
y_9_3_1 0
y_9_3_2 0
y_9_4_0 0
y_9_4_1 0
y_9_4_2 0
y_10_0_0 0
y_10_0_1 0
y_10_0_2 0
y_10_1_0 1.0000000000000011e+00
y_10_1_1 0
y_10_1_2 -6.38378239159465e-16
y_10_2_0 0
y_10_2_1 0
y_10_2_2 0
y_10_3_0 0
y_10_3_1 0
y_10_3_2 0
y_10_4_0 0
y_10_4_1 0
y_10_4_2 0
y_11_0_0 0
y_11_0_1 0
y_11_0_2 0
y_11_1_0 1
y_11_1_1 0
y_11_1_2 0
y_11_2_0 0
y_11_2_1 1
y_11_2_2 0
y_11_3_0 0
y_11_3_1 0
y_11_3_2 0
y_11_4_0 0
y_11_4_1 0
y_11_4_2 0
y_12_0_0 0
y_12_0_1 0
y_12_0_2 0
y_12_1_0 0
y_12_1_1 0
y_12_1_2 0
y_12_2_0 0
y_12_2_1 1
y_12_2_2 0
y_12_3_0 0
y_12_3_1 0
y_12_3_2 0
y_12_4_0 0
y_12_4_1 0
y_12_4_2 0
y_13_0_0 0
y_13_0_1 1.0000000000000528e+00
y_13_0_2 -9.16963382902529e-14
y_13_1_0 8.0097222106962309e-14
y_13_1_1 0
y_13_1_2 3.9317728919491186e-14
y_13_2_0 0
y_13_2_1 0
y_13_2_2 0
y_13_3_0 0
y_13_3_1 0
y_13_3_2 0
y_13_4_0 0
y_13_4_1 0
y_13_4_2 0
y_14_0_0 1
y_14_0_1 1
y_14_0_2 0
y_14_1_0 0
y_14_1_1 0
y_14_1_2 0
y_14_2_0 0
y_14_2_1 0
y_14_2_2 0
y_14_3_0 0
y_14_3_1 0
y_14_3_2 0
y_14_4_0 0
y_14_4_1 0
y_14_4_2 0
y_15_0_0 0
y_15_0_1 1.00000000000019
y_15_0_2 0
y_15_1_0 0
y_15_1_1 0
y_15_1_2 0
y_15_2_0 0
y_15_2_1 0
y_15_2_2 0
y_15_3_0 0
y_15_3_1 0
y_15_3_2 0
y_15_4_0 0
y_15_4_1 0
y_15_4_2 0
x_0_1_0_0 0
x_0_1_0_1 0
x_0_1_0_2 0
x_0_1_1_0 0
x_0_1_1_1 1
x_0_1_1_2 0
x_0_1_2_0 0
x_0_1_2_1 0
x_0_1_2_2 0
x_0_1_3_0 0
x_0_1_3_1 0
x_0_1_3_2 0
x_0_1_4_0 0
x_0_1_4_1 0
x_0_1_4_2 0
x_0_2_0_0 0
x_0_2_0_1 0
x_0_2_0_2 0
x_0_2_1_0 0
x_0_2_1_1 0
x_0_2_1_2 0
x_0_2_2_0 0
x_0_2_2_1 0
x_0_2_2_2 0
x_0_2_3_0 0
x_0_2_3_1 0
x_0_2_3_2 0
x_0_2_4_0 0
x_0_2_4_1 0
x_0_2_4_2 0
x_0_3_0_0 0
x_0_3_0_1 0
x_0_3_0_2 0
x_0_3_1_0 2.7903551421563113e-13
x_0_3_1_1 0
x_0_3_1_2 0
x_0_3_2_0 0
x_0_3_2_1 0
x_0_3_2_2 0
x_0_3_3_0 0
x_0_3_3_1 1.9999999999999989e+00
x_0_3_3_2 0
x_0_3_4_0 0
x_0_3_4_1 0
x_0_3_4_2 0
x_0_4_0_0 0
x_0_4_0_1 1.0000000000000981e+00
x_0_4_0_2 0
x_0_4_1_0 0
x_0_4_1_1 0
x_0_4_1_2 0
x_0_4_2_0 0
x_0_4_2_1 0
x_0_4_2_2 0
x_0_4_3_0 0
x_0_4_3_1 0
x_0_4_3_2 0
x_0_4_4_0 0
x_0_4_4_1 0
x_0_4_4_2 0
x_0_5_0_0 0
x_0_5_0_1 0
x_0_5_0_2 -2.3314683517128287e-15
x_0_5_1_0 9.9999999999994382e-01
x_0_5_1_1 0
x_0_5_1_2 0
x_0_5_2_0 0
x_0_5_2_1 0
x_0_5_2_2 0
x_0_5_3_0 0
x_0_5_3_1 8.8817841970012523e-16
x_0_5_3_2 0
x_0_5_4_0 0
x_0_5_4_1 0
x_0_5_4_2 0
x_0_6_0_0 0
x_0_6_0_1 0
x_0_6_0_2 0
x_0_6_1_0 0
x_0_6_1_1 0
x_0_6_1_2 0
x_0_6_2_0 0
x_0_6_2_1 0
x_0_6_2_2 0
x_0_6_3_0 0
x_0_6_3_1 0
x_0_6_3_2 0
x_0_6_4_0 0
x_0_6_4_1 0
x_0_6_4_2 0
x_0_7_0_0 0
x_0_7_0_1 0
x_0_7_0_2 9.1648910682806672e-14
x_0_7_1_0 1.0000000000000884e+00
x_0_7_1_1 0
x_0_7_1_2 -1.3964132769622588e-13
x_0_7_2_0 0
x_0_7_2_1 0
x_0_7_2_2 1.1700390698951604e-13
x_0_7_3_0 0
x_0_7_3_1 0
x_0_7_3_2 -7.10039124432274e-14
x_0_7_4_0 0
x_0_7_4_1 0
x_0_7_4_2 0
x_0_8_0_0 0
x_0_8_0_1 0
x_0_8_0_2 0
x_0_8_1_0 0
x_0_8_1_1 1
x_0_8_1_2 0
x_0_8_2_0 0
x_0_8_2_1 0
x_0_8_2_2 0
x_0_8_3_0 0
x_0_8_3_1 0
x_0_8_3_2 0
x_0_8_4_0 0
x_0_8_4_1 0
x_0_8_4_2 0
x_0_9_0_0 1
x_0_9_0_1 0
x_0_9_0_2 0
x_0_9_1_0 0
x_0_9_1_1 0
x_0_9_1_2 0
x_0_9_2_0 0
x_0_9_2_1 0
x_0_9_2_2 0
x_0_9_3_0 0
x_0_9_3_1 0
x_0_9_3_2 0
x_0_9_4_0 0
x_0_9_4_1 0
x_0_9_4_2 0
x_0_10_0_0 0
x_0_10_0_1 0
x_0_10_0_2 -9.18709552877317e-14
x_0_10_1_0 0
x_0_10_1_1 0
x_0_10_1_2 0
x_0_10_2_0 0
x_0_10_2_1 0
x_0_10_2_2 0
x_0_10_3_0 0
x_0_10_3_1 0
x_0_10_3_2 4.7332262175838827e-14
x_0_10_4_0 0
x_0_10_4_1 0
x_0_10_4_2 0
x_0_11_0_0 0
x_0_11_0_1 0
x_0_11_0_2 0
x_0_11_1_0 -3.1152858070981893e-13
x_0_11_1_1 0
x_0_11_1_2 0
x_0_11_2_0 0
x_0_11_2_1 1
x_0_11_2_2 0
x_0_11_3_0 0
x_0_11_3_1 0
x_0_11_3_2 0
x_0_11_4_0 0
x_0_11_4_1 0
x_0_11_4_2 0
x_0_12_0_0 0
x_0_12_0_1 0
x_0_12_0_2 0
x_0_12_1_0 0
x_0_12_1_1 0
x_0_12_1_2 0
x_0_12_2_0 0
x_0_12_2_1 1
x_0_12_2_2 0
x_0_12_3_0 0
x_0_12_3_1 0
x_0_12_3_2 0
x_0_12_4_0 0
x_0_12_4_1 0
x_0_12_4_2 0
x_0_13_0_0 0
x_0_13_0_1 9.9999999999986278e-01
x_0_13_0_2 -1.1102230246251565e-16
x_0_13_1_0 0
x_0_13_1_1 0
x_0_13_1_2 0
x_0_13_2_0 0
x_0_13_2_1 0
x_0_13_2_2 -1.6718901447656994e-13
x_0_13_3_0 0
x_0_13_3_1 0
x_0_13_3_2 0
x_0_13_4_0 0
x_0_13_4_1 0
x_0_13_4_2 0
x_0_14_0_0 1
x_0_14_0_1 3.9335076154250241e-14
x_0_14_0_2 0
x_0_14_1_0 0
x_0_14_1_1 0
x_0_14_1_2 0
x_0_14_2_0 0
x_0_14_2_1 0
x_0_14_2_2 0
x_0_14_3_0 0
x_0_14_3_1 0
x_0_14_3_2 0
x_0_14_4_0 0
x_0_14_4_1 0
x_0_14_4_2 0
x_0_15_0_0 0
x_0_15_0_1 0
x_0_15_0_2 0
x_0_15_1_0 0
x_0_15_1_1 0
x_0_15_1_2 0
x_0_15_2_0 0
x_0_15_2_1 0
x_0_15_2_2 0
x_0_15_3_0 0
x_0_15_3_1 0
x_0_15_3_2 0
x_0_15_4_0 0
x_0_15_4_1 0
x_0_15_4_2 0
x_1_2_0_0 0
x_1_2_0_1 0
x_1_2_0_2 0
x_1_2_1_0 0
x_1_2_1_1 0
x_1_2_1_2 0
x_1_2_2_0 0
x_1_2_2_1 0
x_1_2_2_2 0
x_1_2_3_0 0
x_1_2_3_1 0
x_1_2_3_2 0
x_1_2_4_0 0
x_1_2_4_1 0
x_1_2_4_2 0
x_1_3_0_0 0
x_1_3_0_1 0
x_1_3_0_2 0
x_1_3_1_0 0
x_1_3_1_1 0
x_1_3_1_2 0
x_1_3_2_0 0
x_1_3_2_1 0
x_1_3_2_2 0
x_1_3_3_0 0
x_1_3_3_1 0
x_1_3_3_2 0
x_1_3_4_0 0
x_1_3_4_1 0
x_1_3_4_2 0
x_1_4_0_0 0
x_1_4_0_1 0
x_1_4_0_2 0
x_1_4_1_0 0
x_1_4_1_1 0
x_1_4_1_2 0
x_1_4_2_0 0
x_1_4_2_1 0
x_1_4_2_2 0
x_1_4_3_0 0
x_1_4_3_1 0
x_1_4_3_2 0
x_1_4_4_0 0
x_1_4_4_1 0
x_1_4_4_2 0
x_1_5_0_0 0
x_1_5_0_1 0
x_1_5_0_2 0
x_1_5_1_0 0
x_1_5_1_1 0
x_1_5_1_2 0
x_1_5_2_0 0
x_1_5_2_1 0
x_1_5_2_2 0
x_1_5_3_0 0
x_1_5_3_1 0
x_1_5_3_2 0
x_1_5_4_0 0
x_1_5_4_1 0
x_1_5_4_2 0
x_1_6_0_0 0
x_1_6_0_1 0
x_1_6_0_2 0
x_1_6_1_0 0
x_1_6_1_1 0
x_1_6_1_2 0
x_1_6_2_0 0
x_1_6_2_1 0
x_1_6_2_2 0
x_1_6_3_0 0
x_1_6_3_1 0
x_1_6_3_2 0
x_1_6_4_0 0
x_1_6_4_1 0
x_1_6_4_2 0
x_1_7_0_0 0
x_1_7_0_1 0
x_1_7_0_2 0
x_1_7_1_0 0
x_1_7_1_1 0
x_1_7_1_2 0
x_1_7_2_0 0
x_1_7_2_1 0
x_1_7_2_2 0
x_1_7_3_0 0
x_1_7_3_1 0
x_1_7_3_2 0
x_1_7_4_0 0
x_1_7_4_1 0
x_1_7_4_2 0
x_1_8_0_0 0
x_1_8_0_1 0
x_1_8_0_2 0
x_1_8_1_0 0
x_1_8_1_1 1
x_1_8_1_2 0
x_1_8_2_0 0
x_1_8_2_1 0
x_1_8_2_2 0
x_1_8_3_0 0
x_1_8_3_1 0
x_1_8_3_2 0
x_1_8_4_0 0
x_1_8_4_1 0
x_1_8_4_2 0
x_1_9_0_0 0
x_1_9_0_1 0
x_1_9_0_2 0
x_1_9_1_0 0
x_1_9_1_1 0
x_1_9_1_2 0
x_1_9_2_0 0
x_1_9_2_1 0
x_1_9_2_2 0
x_1_9_3_0 0
x_1_9_3_1 0
x_1_9_3_2 0
x_1_9_4_0 0
x_1_9_4_1 0
x_1_9_4_2 0
x_1_10_0_0 0
x_1_10_0_1 0
x_1_10_0_2 0
x_1_10_1_0 0
x_1_10_1_1 0
x_1_10_1_2 0
x_1_10_2_0 0
x_1_10_2_1 0
x_1_10_2_2 0
x_1_10_3_0 0
x_1_10_3_1 0
x_1_10_3_2 0
x_1_10_4_0 0
x_1_10_4_1 0
x_1_10_4_2 0
x_1_11_0_0 0
x_1_11_0_1 0
x_1_11_0_2 0
x_1_11_1_0 0
x_1_11_1_1 0
x_1_11_1_2 0
x_1_11_2_0 0
x_1_11_2_1 0
x_1_11_2_2 0
x_1_11_3_0 0
x_1_11_3_1 0
x_1_11_3_2 0
x_1_11_4_0 0
x_1_11_4_1 0
x_1_11_4_2 0
x_1_12_0_0 0
x_1_12_0_1 0
x_1_12_0_2 0
x_1_12_1_0 0
x_1_12_1_1 0
x_1_12_1_2 0
x_1_12_2_0 0
x_1_12_2_1 0
x_1_12_2_2 0
x_1_12_3_0 0
x_1_12_3_1 0
x_1_12_3_2 0
x_1_12_4_0 0
x_1_12_4_1 0
x_1_12_4_2 0
x_1_13_0_0 0
x_1_13_0_1 0
x_1_13_0_2 0
x_1_13_1_0 0
x_1_13_1_1 0
x_1_13_1_2 0
x_1_13_2_0 0
x_1_13_2_1 0
x_1_13_2_2 0
x_1_13_3_0 0
x_1_13_3_1 0
x_1_13_3_2 0
x_1_13_4_0 0
x_1_13_4_1 0
x_1_13_4_2 0
x_1_14_0_0 0
x_1_14_0_1 0
x_1_14_0_2 0
x_1_14_1_0 0
x_1_14_1_1 0
x_1_14_1_2 0
x_1_14_2_0 0
x_1_14_2_1 0
x_1_14_2_2 0
x_1_14_3_0 0
x_1_14_3_1 0
x_1_14_3_2 0
x_1_14_4_0 0
x_1_14_4_1 0
x_1_14_4_2 0
x_1_15_0_0 0
x_1_15_0_1 0
x_1_15_0_2 0
x_1_15_1_0 0
x_1_15_1_1 0
x_1_15_1_2 0
x_1_15_2_0 0
x_1_15_2_1 0
x_1_15_2_2 0
x_1_15_3_0 0
x_1_15_3_1 0
x_1_15_3_2 0
x_1_15_4_0 0
x_1_15_4_1 0
x_1_15_4_2 0
x_2_3_0_0 0
x_2_3_0_1 0
x_2_3_0_2 0
x_2_3_1_0 0
x_2_3_1_1 0
x_2_3_1_2 0
x_2_3_2_0 0
x_2_3_2_1 0
x_2_3_2_2 0
x_2_3_3_0 0
x_2_3_3_1 0
x_2_3_3_2 0
x_2_3_4_0 0
x_2_3_4_1 0
x_2_3_4_2 0
x_2_4_0_0 1.0000000000000002e+00
x_2_4_0_1 0
x_2_4_0_2 0
x_2_4_1_0 0
x_2_4_1_1 0
x_2_4_1_2 0
x_2_4_2_0 0
x_2_4_2_1 0
x_2_4_2_2 0
x_2_4_3_0 0
x_2_4_3_1 0
x_2_4_3_2 0
x_2_4_4_0 0
x_2_4_4_1 0
x_2_4_4_2 0
x_2_5_0_0 0
x_2_5_0_1 0
x_2_5_0_2 0
x_2_5_1_0 0
x_2_5_1_1 0
x_2_5_1_2 0
x_2_5_2_0 0
x_2_5_2_1 0
x_2_5_2_2 0
x_2_5_3_0 0
x_2_5_3_1 0
x_2_5_3_2 0
x_2_5_4_0 0
x_2_5_4_1 0
x_2_5_4_2 0
x_2_6_0_0 1.0000000000008435e+00
x_2_6_0_1 0
x_2_6_0_2 0
x_2_6_1_0 0
x_2_6_1_1 0
x_2_6_1_2 0
x_2_6_2_0 0
x_2_6_2_1 0
x_2_6_2_2 -8.3594507238284969e-14
x_2_6_3_0 0
x_2_6_3_1 0
x_2_6_3_2 0
x_2_6_4_0 0
x_2_6_4_1 0
x_2_6_4_2 0
x_2_7_0_0 0
x_2_7_0_1 0
x_2_7_0_2 0
x_2_7_1_0 0
x_2_7_1_1 0
x_2_7_1_2 0
x_2_7_2_0 0
x_2_7_2_1 0
x_2_7_2_2 0
x_2_7_3_0 0
x_2_7_3_1 0
x_2_7_3_2 0
x_2_7_4_0 0
x_2_7_4_1 0
x_2_7_4_2 0
x_2_8_0_0 0
x_2_8_0_1 0
x_2_8_0_2 0
x_2_8_1_0 0
x_2_8_1_1 0
x_2_8_1_2 0
x_2_8_2_0 0
x_2_8_2_1 0
x_2_8_2_2 0
x_2_8_3_0 0
x_2_8_3_1 0
x_2_8_3_2 0
x_2_8_4_0 0
x_2_8_4_1 0
x_2_8_4_2 0
x_2_9_0_0 0
x_2_9_0_1 0
x_2_9_0_2 0
x_2_9_1_0 0
x_2_9_1_1 0
x_2_9_1_2 0
x_2_9_2_0 0
x_2_9_2_1 0
x_2_9_2_2 0
x_2_9_3_0 0
x_2_9_3_1 0
x_2_9_3_2 0
x_2_9_4_0 0
x_2_9_4_1 0
x_2_9_4_2 0
x_2_10_0_0 0
x_2_10_0_1 0
x_2_10_0_2 0
x_2_10_1_0 0
x_2_10_1_1 0
x_2_10_1_2 0
x_2_10_2_0 0
x_2_10_2_1 0
x_2_10_2_2 0
x_2_10_3_0 0
x_2_10_3_1 0
x_2_10_3_2 0
x_2_10_4_0 0
x_2_10_4_1 0
x_2_10_4_2 0
x_2_11_0_0 0
x_2_11_0_1 0
x_2_11_0_2 0
x_2_11_1_0 0
x_2_11_1_1 0
x_2_11_1_2 0
x_2_11_2_0 0
x_2_11_2_1 0
x_2_11_2_2 0
x_2_11_3_0 0
x_2_11_3_1 0
x_2_11_3_2 0
x_2_11_4_0 0
x_2_11_4_1 0
x_2_11_4_2 0
x_2_12_0_0 0
x_2_12_0_1 0
x_2_12_0_2 0
x_2_12_1_0 0
x_2_12_1_1 0
x_2_12_1_2 0
x_2_12_2_0 0
x_2_12_2_1 0
x_2_12_2_2 0
x_2_12_3_0 0
x_2_12_3_1 0
x_2_12_3_2 0
x_2_12_4_0 0
x_2_12_4_1 0
x_2_12_4_2 0
x_2_13_0_0 0
x_2_13_0_1 0
x_2_13_0_2 0
x_2_13_1_0 0
x_2_13_1_1 0
x_2_13_1_2 0
x_2_13_2_0 0
x_2_13_2_1 0
x_2_13_2_2 0
x_2_13_3_0 0
x_2_13_3_1 0
x_2_13_3_2 0
x_2_13_4_0 0
x_2_13_4_1 0
x_2_13_4_2 0
x_2_14_0_0 -8.4363966634584493e-13
x_2_14_0_1 0
x_2_14_0_2 0
x_2_14_1_0 0
x_2_14_1_1 0
x_2_14_1_2 0
x_2_14_2_0 0
x_2_14_2_1 0
x_2_14_2_2 0
x_2_14_3_0 0
x_2_14_3_1 0
x_2_14_3_2 0
x_2_14_4_0 0
x_2_14_4_1 0
x_2_14_4_2 0
x_2_15_0_0 0
x_2_15_0_1 0
x_2_15_0_2 0
x_2_15_1_0 0
x_2_15_1_1 0
x_2_15_1_2 0
x_2_15_2_0 0
x_2_15_2_1 0
x_2_15_2_2 8.3594507238284969e-14
x_2_15_3_0 0
x_2_15_3_1 0
x_2_15_3_2 0
x_2_15_4_0 0
x_2_15_4_1 0
x_2_15_4_2 0
x_3_4_0_0 0
x_3_4_0_1 0
x_3_4_0_2 0
x_3_4_1_0 0
x_3_4_1_1 0
x_3_4_1_2 0
x_3_4_2_0 0
x_3_4_2_1 0
x_3_4_2_2 0
x_3_4_3_0 0
x_3_4_3_1 0
x_3_4_3_2 0
x_3_4_4_0 0
x_3_4_4_1 0
x_3_4_4_2 0
x_3_5_0_0 0
x_3_5_0_1 0
x_3_5_0_2 0
x_3_5_1_0 0
x_3_5_1_1 0
x_3_5_1_2 0
x_3_5_2_0 0
x_3_5_2_1 0
x_3_5_2_2 0
x_3_5_3_0 0
x_3_5_3_1 0
x_3_5_3_2 0
x_3_5_4_0 0
x_3_5_4_1 0
x_3_5_4_2 0
x_3_6_0_0 0
x_3_6_0_1 0
x_3_6_0_2 0
x_3_6_1_0 0
x_3_6_1_1 0
x_3_6_1_2 0
x_3_6_2_0 0
x_3_6_2_1 0
x_3_6_2_2 0
x_3_6_3_0 0
x_3_6_3_1 0
x_3_6_3_2 0
x_3_6_4_0 0
x_3_6_4_1 0
x_3_6_4_2 0
x_3_7_0_0 0
x_3_7_0_1 0
x_3_7_0_2 0
x_3_7_1_0 0
x_3_7_1_1 0
x_3_7_1_2 0
x_3_7_2_0 0
x_3_7_2_1 0
x_3_7_2_2 0
x_3_7_3_0 0
x_3_7_3_1 8.8817841970012523e-16
x_3_7_3_2 0
x_3_7_4_0 0
x_3_7_4_1 0
x_3_7_4_2 0
x_3_8_0_0 0
x_3_8_0_1 0
x_3_8_0_2 0
x_3_8_1_0 0
x_3_8_1_1 0
x_3_8_1_2 0
x_3_8_2_0 0
x_3_8_2_1 0
x_3_8_2_2 0
x_3_8_3_0 0
x_3_8_3_1 0
x_3_8_3_2 0
x_3_8_4_0 0
x_3_8_4_1 0
x_3_8_4_2 0
x_3_9_0_0 0
x_3_9_0_1 0
x_3_9_0_2 0
x_3_9_1_0 0
x_3_9_1_1 0
x_3_9_1_2 0
x_3_9_2_0 0
x_3_9_2_1 0
x_3_9_2_2 0
x_3_9_3_0 0
x_3_9_3_1 0
x_3_9_3_2 0
x_3_9_4_0 0
x_3_9_4_1 0
x_3_9_4_2 0
x_3_10_0_0 0
x_3_10_0_1 0
x_3_10_0_2 0
x_3_10_1_0 0
x_3_10_1_1 0
x_3_10_1_2 2.2924592071511413e-14
x_3_10_2_0 0
x_3_10_2_1 0
x_3_10_2_2 0
x_3_10_3_0 0
x_3_10_3_1 0
x_3_10_3_2 0
x_3_10_4_0 0
x_3_10_4_1 0
x_3_10_4_2 0
x_3_11_0_0 0
x_3_11_0_1 0
x_3_11_0_2 0
x_3_11_1_0 0
x_3_11_1_1 0
x_3_11_1_2 0
x_3_11_2_0 0
x_3_11_2_1 0
x_3_11_2_2 0
x_3_11_3_0 0
x_3_11_3_1 0
x_3_11_3_2 0
x_3_11_4_0 0
x_3_11_4_1 0
x_3_11_4_2 0
x_3_12_0_0 0
x_3_12_0_1 0
x_3_12_0_2 0
x_3_12_1_0 0
x_3_12_1_1 0
x_3_12_1_2 0
x_3_12_2_0 0
x_3_12_2_1 0
x_3_12_2_2 0
x_3_12_3_0 0
x_3_12_3_1 0
x_3_12_3_2 0
x_3_12_4_0 0
x_3_12_4_1 0
x_3_12_4_2 0
x_3_13_0_0 0
x_3_13_0_1 0
x_3_13_0_2 0
x_3_13_1_0 0
x_3_13_1_1 0
x_3_13_1_2 0
x_3_13_2_0 0
x_3_13_2_1 0
x_3_13_2_2 0
x_3_13_3_0 0
x_3_13_3_1 0
x_3_13_3_2 0
x_3_13_4_0 0
x_3_13_4_1 0
x_3_13_4_2 0
x_3_14_0_0 0
x_3_14_0_1 0
x_3_14_0_2 0
x_3_14_1_0 0
x_3_14_1_1 0
x_3_14_1_2 -2.2924592071511413e-14
x_3_14_2_0 0
x_3_14_2_1 0
x_3_14_2_2 0
x_3_14_3_0 0
x_3_14_3_1 0
x_3_14_3_2 0
x_3_14_4_0 0
x_3_14_4_1 0
x_3_14_4_2 0
x_3_15_0_0 0
x_3_15_0_1 0
x_3_15_0_2 0
x_3_15_1_0 0
x_3_15_1_1 0
x_3_15_1_2 0
x_3_15_2_0 0
x_3_15_2_1 0
x_3_15_2_2 0
x_3_15_3_0 0
x_3_15_3_1 0
x_3_15_3_2 0
x_3_15_4_0 0
x_3_15_4_1 0
x_3_15_4_2 0
x_4_5_0_0 0
x_4_5_0_1 0
x_4_5_0_2 0
x_4_5_1_0 0
x_4_5_1_1 0
x_4_5_1_2 0
x_4_5_2_0 0
x_4_5_2_1 0
x_4_5_2_2 0
x_4_5_3_0 0
x_4_5_3_1 0
x_4_5_3_2 0
x_4_5_4_0 0
x_4_5_4_1 0
x_4_5_4_2 0
x_4_6_0_0 0
x_4_6_0_1 0
x_4_6_0_2 0
x_4_6_1_0 0
x_4_6_1_1 0
x_4_6_1_2 0
x_4_6_2_0 0
x_4_6_2_1 0
x_4_6_2_2 0
x_4_6_3_0 0
x_4_6_3_1 0
x_4_6_3_2 0
x_4_6_4_0 0
x_4_6_4_1 0
x_4_6_4_2 0
x_4_7_0_0 0
x_4_7_0_1 0
x_4_7_0_2 0
x_4_7_1_0 0
x_4_7_1_1 0
x_4_7_1_2 0
x_4_7_2_0 0
x_4_7_2_1 0
x_4_7_2_2 0
x_4_7_3_0 0
x_4_7_3_1 0
x_4_7_3_2 0
x_4_7_4_0 0
x_4_7_4_1 0
x_4_7_4_2 0
x_4_8_0_0 0
x_4_8_0_1 0
x_4_8_0_2 0
x_4_8_1_0 0
x_4_8_1_1 0
x_4_8_1_2 0
x_4_8_2_0 0
x_4_8_2_1 0
x_4_8_2_2 0
x_4_8_3_0 0
x_4_8_3_1 0
x_4_8_3_2 0
x_4_8_4_0 0
x_4_8_4_1 0
x_4_8_4_2 0
x_4_9_0_0 1
x_4_9_0_1 0
x_4_9_0_2 0
x_4_9_1_0 0
x_4_9_1_1 0
x_4_9_1_2 0
x_4_9_2_0 0
x_4_9_2_1 0
x_4_9_2_2 0
x_4_9_3_0 0
x_4_9_3_1 0
x_4_9_3_2 4.4203611868436962e-14
x_4_9_4_0 0
x_4_9_4_1 0
x_4_9_4_2 0
x_4_10_0_0 0
x_4_10_0_1 0
x_4_10_0_2 0
x_4_10_1_0 0
x_4_10_1_1 0
x_4_10_1_2 0
x_4_10_2_0 0
x_4_10_2_1 0
x_4_10_2_2 0
x_4_10_3_0 0
x_4_10_3_1 0
x_4_10_3_2 0
x_4_10_4_0 0
x_4_10_4_1 0
x_4_10_4_2 0
x_4_11_0_0 0
x_4_11_0_1 0
x_4_11_0_2 0
x_4_11_1_0 0
x_4_11_1_1 0
x_4_11_1_2 0
x_4_11_2_0 0
x_4_11_2_1 0
x_4_11_2_2 0
x_4_11_3_0 0
x_4_11_3_1 0
x_4_11_3_2 0
x_4_11_4_0 0
x_4_11_4_1 0
x_4_11_4_2 0
x_4_12_0_0 0
x_4_12_0_1 0
x_4_12_0_2 0
x_4_12_1_0 0
x_4_12_1_1 0
x_4_12_1_2 0
x_4_12_2_0 0
x_4_12_2_1 0
x_4_12_2_2 0
x_4_12_3_0 0
x_4_12_3_1 0
x_4_12_3_2 0
x_4_12_4_0 0
x_4_12_4_1 0
x_4_12_4_2 0
x_4_13_0_0 0
x_4_13_0_1 0
x_4_13_0_2 0
x_4_13_1_0 0
x_4_13_1_1 0
x_4_13_1_2 0
x_4_13_2_0 0
x_4_13_2_1 0
x_4_13_2_2 0
x_4_13_3_0 0
x_4_13_3_1 0
x_4_13_3_2 0
x_4_13_4_0 0
x_4_13_4_1 0
x_4_13_4_2 0
x_4_14_0_0 0
x_4_14_0_1 -1.8984813721090177e-13
x_4_14_0_2 0
x_4_14_1_0 0
x_4_14_1_1 0
x_4_14_1_2 0
x_4_14_2_0 0
x_4_14_2_1 0
x_4_14_2_2 0
x_4_14_3_0 0
x_4_14_3_1 0
x_4_14_3_2 0
x_4_14_4_0 0
x_4_14_4_1 0
x_4_14_4_2 0
x_4_15_0_0 0
x_4_15_0_1 1.00000000000019
x_4_15_0_2 0
x_4_15_1_0 0
x_4_15_1_1 0
x_4_15_1_2 0
x_4_15_2_0 0
x_4_15_2_1 0
x_4_15_2_2 0
x_4_15_3_0 0
x_4_15_3_1 0
x_4_15_3_2 0
x_4_15_4_0 0
x_4_15_4_1 0
x_4_15_4_2 0
x_5_6_0_0 0
x_5_6_0_1 0
x_5_6_0_2 0
x_5_6_1_0 0
x_5_6_1_1 0
x_5_6_1_2 0
x_5_6_2_0 0
x_5_6_2_1 0
x_5_6_2_2 0
x_5_6_3_0 0
x_5_6_3_1 0
x_5_6_3_2 0
x_5_6_4_0 0
x_5_6_4_1 0
x_5_6_4_2 0
x_5_7_0_0 0
x_5_7_0_1 0
x_5_7_0_2 0
x_5_7_1_0 0
x_5_7_1_1 0
x_5_7_1_2 0
x_5_7_2_0 0
x_5_7_2_1 0
x_5_7_2_2 0
x_5_7_3_0 0
x_5_7_3_1 0
x_5_7_3_2 0
x_5_7_4_0 0
x_5_7_4_1 0
x_5_7_4_2 0
x_5_8_0_0 0
x_5_8_0_1 0
x_5_8_0_2 0
x_5_8_1_0 0
x_5_8_1_1 0
x_5_8_1_2 0
x_5_8_2_0 0
x_5_8_2_1 0
x_5_8_2_2 0
x_5_8_3_0 0
x_5_8_3_1 0
x_5_8_3_2 0
x_5_8_4_0 0
x_5_8_4_1 0
x_5_8_4_2 0
x_5_9_0_0 0
x_5_9_0_1 0
x_5_9_0_2 0
x_5_9_1_0 0
x_5_9_1_1 0
x_5_9_1_2 0
x_5_9_2_0 0
x_5_9_2_1 0
x_5_9_2_2 0
x_5_9_3_0 0
x_5_9_3_1 0
x_5_9_3_2 0
x_5_9_4_0 0
x_5_9_4_1 0
x_5_9_4_2 0
x_5_10_0_0 0
x_5_10_0_1 0
x_5_10_0_2 0
x_5_10_1_0 0
x_5_10_1_1 0
x_5_10_1_2 0
x_5_10_2_0 0
x_5_10_2_1 0
x_5_10_2_2 0
x_5_10_3_0 0
x_5_10_3_1 0
x_5_10_3_2 0
x_5_10_4_0 0
x_5_10_4_1 0
x_5_10_4_2 0
x_5_11_0_0 0
x_5_11_0_1 0
x_5_11_0_2 0
x_5_11_1_0 1.0000000000000566e+00
x_5_11_1_1 0
x_5_11_1_2 0
x_5_11_2_0 0
x_5_11_2_1 0
x_5_11_2_2 0
x_5_11_3_0 0
x_5_11_3_1 0
x_5_11_3_2 0
x_5_11_4_0 0
x_5_11_4_1 0
x_5_11_4_2 0
x_5_12_0_0 0
x_5_12_0_1 0
x_5_12_0_2 0
x_5_12_1_0 0
x_5_12_1_1 0
x_5_12_1_2 0
x_5_12_2_0 0
x_5_12_2_1 0
x_5_12_2_2 0
x_5_12_3_0 0
x_5_12_3_1 0
x_5_12_3_2 0
x_5_12_4_0 0
x_5_12_4_1 0
x_5_12_4_2 0
x_5_13_0_0 0
x_5_13_0_1 0
x_5_13_0_2 0
x_5_13_1_0 0
x_5_13_1_1 0
x_5_13_1_2 0
x_5_13_2_0 0
x_5_13_2_1 0
x_5_13_2_2 0
x_5_13_3_0 0
x_5_13_3_1 0
x_5_13_3_2 0
x_5_13_4_0 0
x_5_13_4_1 0
x_5_13_4_2 0
x_5_14_0_0 0
x_5_14_0_1 0
x_5_14_0_2 0
x_5_14_1_0 0
x_5_14_1_1 0
x_5_14_1_2 0
x_5_14_2_0 0
x_5_14_2_1 0
x_5_14_2_2 0
x_5_14_3_0 0
x_5_14_3_1 0
x_5_14_3_2 0
x_5_14_4_0 0
x_5_14_4_1 0
x_5_14_4_2 0
x_5_15_0_0 0
x_5_15_0_1 0
x_5_15_0_2 0
x_5_15_1_0 0
x_5_15_1_1 0
x_5_15_1_2 0
x_5_15_2_0 0
x_5_15_2_1 0
x_5_15_2_2 0
x_5_15_3_0 0
x_5_15_3_1 0
x_5_15_3_2 0
x_5_15_4_0 0
x_5_15_4_1 0
x_5_15_4_2 0
x_6_7_0_0 0
x_6_7_0_1 0
x_6_7_0_2 0
x_6_7_1_0 0
x_6_7_1_1 0
x_6_7_1_2 0
x_6_7_2_0 0
x_6_7_2_1 0
x_6_7_2_2 0
x_6_7_3_0 0
x_6_7_3_1 0
x_6_7_3_2 0
x_6_7_4_0 0
x_6_7_4_1 0
x_6_7_4_2 0
x_6_8_0_0 0
x_6_8_0_1 0
x_6_8_0_2 0
x_6_8_1_0 0
x_6_8_1_1 0
x_6_8_1_2 0
x_6_8_2_0 0
x_6_8_2_1 0
x_6_8_2_2 0
x_6_8_3_0 0
x_6_8_3_1 0
x_6_8_3_2 0
x_6_8_4_0 0
x_6_8_4_1 0
x_6_8_4_2 0
x_6_9_0_0 0
x_6_9_0_1 0
x_6_9_0_2 0
x_6_9_1_0 0
x_6_9_1_1 0
x_6_9_1_2 0
x_6_9_2_0 0
x_6_9_2_1 0
x_6_9_2_2 0
x_6_9_3_0 0
x_6_9_3_1 0
x_6_9_3_2 0
x_6_9_4_0 0
x_6_9_4_1 0
x_6_9_4_2 0
x_6_10_0_0 0
x_6_10_0_1 0
x_6_10_0_2 9.2148511043887993e-14
x_6_10_1_0 0
x_6_10_1_1 0
x_6_10_1_2 -1.1615557056440856e-13
x_6_10_2_0 0
x_6_10_2_1 0
x_6_10_2_2 0
x_6_10_3_0 0
x_6_10_3_1 0
x_6_10_3_2 0
x_6_10_4_0 0
x_6_10_4_1 0
x_6_10_4_2 0
x_6_11_0_0 0
x_6_11_0_1 0
x_6_11_0_2 0
x_6_11_1_0 0
x_6_11_1_1 0
x_6_11_1_2 0
x_6_11_2_0 0
x_6_11_2_1 0
x_6_11_2_2 0
x_6_11_3_0 0
x_6_11_3_1 0
x_6_11_3_2 0
x_6_11_4_0 0
x_6_11_4_1 0
x_6_11_4_2 0
x_6_12_0_0 0
x_6_12_0_1 0
x_6_12_0_2 0
x_6_12_1_0 0
x_6_12_1_1 0
x_6_12_1_2 0
x_6_12_2_0 0
x_6_12_2_1 0
x_6_12_2_2 0
x_6_12_3_0 0
x_6_12_3_1 0
x_6_12_3_2 0
x_6_12_4_0 0
x_6_12_4_1 0
x_6_12_4_2 0
x_6_13_0_0 0
x_6_13_0_1 -6.52160889067525e-13
x_6_13_0_2 -9.1926466438962962e-14
x_6_13_1_0 0
x_6_13_1_1 0
x_6_13_1_2 1.1299143494422687e-13
x_6_13_2_0 0
x_6_13_2_1 0
x_6_13_2_2 1.6718901447656994e-13
x_6_13_3_0 0
x_6_13_3_1 0
x_6_13_3_2 0
x_6_13_4_0 0
x_6_13_4_1 0
x_6_13_4_2 0
x_6_14_0_0 1.0000000000008435e+00
x_6_14_0_1 -1.0321347192454849e-12
x_6_14_0_2 0
x_6_14_1_0 0
x_6_14_1_1 0
x_6_14_1_2 0
x_6_14_2_0 0
x_6_14_2_1 0
x_6_14_2_2 0
x_6_14_3_0 0
x_6_14_3_1 0
x_6_14_3_2 0
x_6_14_4_0 0
x_6_14_4_1 0
x_6_14_4_2 0
x_6_15_0_0 0
x_6_15_0_1 0
x_6_15_0_2 0
x_6_15_1_0 0
x_6_15_1_1 0
x_6_15_1_2 0
x_6_15_2_0 0
x_6_15_2_1 0
x_6_15_2_2 -8.3594507238284969e-14
x_6_15_3_0 0
x_6_15_3_1 0
x_6_15_3_2 0
x_6_15_4_0 0
x_6_15_4_1 0
x_6_15_4_2 0
x_7_8_0_0 0
x_7_8_0_1 0
x_7_8_0_2 0
x_7_8_1_0 0
x_7_8_1_1 0
x_7_8_1_2 0
x_7_8_2_0 0
x_7_8_2_1 0
x_7_8_2_2 0
x_7_8_3_0 0
x_7_8_3_1 0
x_7_8_3_2 0
x_7_8_4_0 0
x_7_8_4_1 0
x_7_8_4_2 0
x_7_9_0_0 0
x_7_9_0_1 0
x_7_9_0_2 0
x_7_9_1_0 0
x_7_9_1_1 0
x_7_9_1_2 0
x_7_9_2_0 0
x_7_9_2_1 0
x_7_9_2_2 0
x_7_9_3_0 0
x_7_9_3_1 0
x_7_9_3_2 0
x_7_9_4_0 0
x_7_9_4_1 0
x_7_9_4_2 0
x_7_10_0_0 0
x_7_10_0_1 0
x_7_10_0_2 0
x_7_10_1_0 9.9999999999991318e-01
x_7_10_1_1 0
x_7_10_1_2 3.0034559590107311e-14
x_7_10_2_0 0
x_7_10_2_1 0
x_7_10_2_2 0
x_7_10_3_0 0
x_7_10_3_1 0
x_7_10_3_2 -4.7332262175838827e-14
x_7_10_4_0 0
x_7_10_4_1 0
x_7_10_4_2 0
x_7_11_0_0 0
x_7_11_0_1 0
x_7_11_0_2 0
x_7_11_1_0 -2.8919489837681390e-15
x_7_11_1_1 0
x_7_11_1_2 0
x_7_11_2_0 0
x_7_11_2_1 0
x_7_11_2_2 0
x_7_11_3_0 0
x_7_11_3_1 0
x_7_11_3_2 0
x_7_11_4_0 0
x_7_11_4_1 0
x_7_11_4_2 0
x_7_12_0_0 0
x_7_12_0_1 0
x_7_12_0_2 0
x_7_12_1_0 0
x_7_12_1_1 0
x_7_12_1_2 0
x_7_12_2_0 0
x_7_12_2_1 0
x_7_12_2_2 0
x_7_12_3_0 0
x_7_12_3_1 0
x_7_12_3_2 0
x_7_12_4_0 0
x_7_12_4_1 0
x_7_12_4_2 0
x_7_13_0_0 0
x_7_13_0_1 0
x_7_13_0_2 -9.1648910682806672e-14
x_7_13_1_0 0
x_7_13_1_1 0
x_7_13_1_2 1.0949574580365606e-13
x_7_13_2_0 0
x_7_13_2_1 0
x_7_13_2_2 0
x_7_13_3_0 0
x_7_13_3_1 0
x_7_13_3_2 0
x_7_13_4_0 0
x_7_13_4_1 0
x_7_13_4_2 0
x_7_14_0_0 0
x_7_14_0_1 0
x_7_14_0_2 0
x_7_14_1_0 0
x_7_14_1_1 0
x_7_14_1_2 0
x_7_14_2_0 0
x_7_14_2_1 0
x_7_14_2_2 0
x_7_14_3_0 0
x_7_14_3_1 0
x_7_14_3_2 0
x_7_14_4_0 0
x_7_14_4_1 0
x_7_14_4_2 0
x_7_15_0_0 0
x_7_15_0_1 0
x_7_15_0_2 0
x_7_15_1_0 0
x_7_15_1_1 0
x_7_15_1_2 0
x_7_15_2_0 0
x_7_15_2_1 0
x_7_15_2_2 0
x_7_15_3_0 0
x_7_15_3_1 0
x_7_15_3_2 0
x_7_15_4_0 0
x_7_15_4_1 0
x_7_15_4_2 0
x_8_9_0_0 0
x_8_9_0_1 0
x_8_9_0_2 0
x_8_9_1_0 0
x_8_9_1_1 0
x_8_9_1_2 0
x_8_9_2_0 0
x_8_9_2_1 0
x_8_9_2_2 0
x_8_9_3_0 0
x_8_9_3_1 0
x_8_9_3_2 -4.4203611868436962e-14
x_8_9_4_0 0
x_8_9_4_1 0
x_8_9_4_2 0
x_8_10_0_0 0
x_8_10_0_1 0
x_8_10_0_2 0
x_8_10_1_0 0
x_8_10_1_1 0
x_8_10_1_2 0
x_8_10_2_0 0
x_8_10_2_1 0
x_8_10_2_2 0
x_8_10_3_0 0
x_8_10_3_1 0
x_8_10_3_2 0
x_8_10_4_0 0
x_8_10_4_1 0
x_8_10_4_2 0
x_8_11_0_0 0
x_8_11_0_1 0
x_8_11_0_2 0
x_8_11_1_0 0
x_8_11_1_1 0
x_8_11_1_2 0
x_8_11_2_0 0
x_8_11_2_1 0
x_8_11_2_2 0
x_8_11_3_0 0
x_8_11_3_1 0
x_8_11_3_2 0
x_8_11_4_0 0
x_8_11_4_1 0
x_8_11_4_2 0
x_8_12_0_0 0
x_8_12_0_1 0
x_8_12_0_2 0
x_8_12_1_0 0
x_8_12_1_1 0
x_8_12_1_2 0
x_8_12_2_0 0
x_8_12_2_1 0
x_8_12_2_2 0
x_8_12_3_0 0
x_8_12_3_1 0
x_8_12_3_2 0
x_8_12_4_0 0
x_8_12_4_1 0
x_8_12_4_2 0
x_8_13_0_0 0
x_8_13_0_1 0
x_8_13_0_2 0
x_8_13_1_0 0
x_8_13_1_1 0
x_8_13_1_2 0
x_8_13_2_0 0
x_8_13_2_1 0
x_8_13_2_2 0
x_8_13_3_0 0
x_8_13_3_1 0
x_8_13_3_2 0
x_8_13_4_0 0
x_8_13_4_1 0
x_8_13_4_2 0
x_8_14_0_0 0
x_8_14_0_1 0
x_8_14_0_2 0
x_8_14_1_0 0
x_8_14_1_1 0
x_8_14_1_2 0
x_8_14_2_0 0
x_8_14_2_1 0
x_8_14_2_2 0
x_8_14_3_0 0
x_8_14_3_1 0
x_8_14_3_2 0
x_8_14_4_0 0
x_8_14_4_1 0
x_8_14_4_2 0
x_8_15_0_0 0
x_8_15_0_1 0
x_8_15_0_2 0
x_8_15_1_0 0
x_8_15_1_1 0
x_8_15_1_2 0
x_8_15_2_0 0
x_8_15_2_1 0
x_8_15_2_2 0
x_8_15_3_0 0
x_8_15_3_1 0
x_8_15_3_2 0
x_8_15_4_0 0
x_8_15_4_1 0
x_8_15_4_2 0
x_9_10_0_0 0
x_9_10_0_1 0
x_9_10_0_2 0
x_9_10_1_0 0
x_9_10_1_1 0
x_9_10_1_2 0
x_9_10_2_0 0
x_9_10_2_1 0
x_9_10_2_2 0
x_9_10_3_0 0
x_9_10_3_1 0
x_9_10_3_2 0
x_9_10_4_0 0
x_9_10_4_1 0
x_9_10_4_2 0
x_9_11_0_0 0
x_9_11_0_1 0
x_9_11_0_2 0
x_9_11_1_0 0
x_9_11_1_1 0
x_9_11_1_2 0
x_9_11_2_0 0
x_9_11_2_1 0
x_9_11_2_2 0
x_9_11_3_0 0
x_9_11_3_1 0
x_9_11_3_2 0
x_9_11_4_0 0
x_9_11_4_1 0
x_9_11_4_2 0
x_9_12_0_0 0
x_9_12_0_1 0
x_9_12_0_2 0
x_9_12_1_0 0
x_9_12_1_1 0
x_9_12_1_2 0
x_9_12_2_0 0
x_9_12_2_1 0
x_9_12_2_2 0
x_9_12_3_0 0
x_9_12_3_1 0
x_9_12_3_2 0
x_9_12_4_0 0
x_9_12_4_1 0
x_9_12_4_2 0
x_9_13_0_0 0
x_9_13_0_1 0
x_9_13_0_2 0
x_9_13_1_0 0
x_9_13_1_1 0
x_9_13_1_2 0
x_9_13_2_0 0
x_9_13_2_1 0
x_9_13_2_2 0
x_9_13_3_0 0
x_9_13_3_1 0
x_9_13_3_2 0
x_9_13_4_0 0
x_9_13_4_1 0
x_9_13_4_2 0
x_9_14_0_0 0
x_9_14_0_1 0
x_9_14_0_2 0
x_9_14_1_0 0
x_9_14_1_1 0
x_9_14_1_2 0
x_9_14_2_0 0
x_9_14_2_1 0
x_9_14_2_2 0
x_9_14_3_0 0
x_9_14_3_1 0
x_9_14_3_2 0
x_9_14_4_0 0
x_9_14_4_1 0
x_9_14_4_2 0
x_9_15_0_0 0
x_9_15_0_1 0
x_9_15_0_2 0
x_9_15_1_0 0
x_9_15_1_1 0
x_9_15_1_2 0
x_9_15_2_0 0
x_9_15_2_1 0
x_9_15_2_2 0
x_9_15_3_0 0
x_9_15_3_1 0
x_9_15_3_2 0
x_9_15_4_0 0
x_9_15_4_1 0
x_9_15_4_2 0
x_10_11_0_0 0
x_10_11_0_1 0
x_10_11_0_2 0
x_10_11_1_0 1.0000000000000902e+00
x_10_11_1_1 0
x_10_11_1_2 0
x_10_11_2_0 0
x_10_11_2_1 0
x_10_11_2_2 0
x_10_11_3_0 0
x_10_11_3_1 0
x_10_11_3_2 0
x_10_11_4_0 0
x_10_11_4_1 0
x_10_11_4_2 0
x_10_12_0_0 0
x_10_12_0_1 0
x_10_12_0_2 0
x_10_12_1_0 0
x_10_12_1_1 0
x_10_12_1_2 0
x_10_12_2_0 0
x_10_12_2_1 0
x_10_12_2_2 0
x_10_12_3_0 0
x_10_12_3_1 0
x_10_12_3_2 0
x_10_12_4_0 0
x_10_12_4_1 0
x_10_12_4_2 0
x_10_13_0_0 0
x_10_13_0_1 0
x_10_13_0_2 0
x_10_13_1_0 1.6769381874988716e-13
x_10_13_1_1 0
x_10_13_1_2 3.9317728919491186e-14
x_10_13_2_0 0
x_10_13_2_1 0
x_10_13_2_2 0
x_10_13_3_0 0
x_10_13_3_1 0
x_10_13_3_2 0
x_10_13_4_0 0
x_10_13_4_1 0
x_10_13_4_2 0
x_10_14_0_0 0
x_10_14_0_1 0
x_10_14_0_2 0
x_10_14_1_0 0
x_10_14_1_1 0
x_10_14_1_2 2.2924592071511413e-14
x_10_14_2_0 0
x_10_14_2_1 0
x_10_14_2_2 0
x_10_14_3_0 0
x_10_14_3_1 0
x_10_14_3_2 0
x_10_14_4_0 0
x_10_14_4_1 0
x_10_14_4_2 0
x_10_15_0_0 0
x_10_15_0_1 0
x_10_15_0_2 0
x_10_15_1_0 0
x_10_15_1_1 0
x_10_15_1_2 0
x_10_15_2_0 0
x_10_15_2_1 0
x_10_15_2_2 0
x_10_15_3_0 0
x_10_15_3_1 0
x_10_15_3_2 0
x_10_15_4_0 0
x_10_15_4_1 0
x_10_15_4_2 0
x_11_12_0_0 0
x_11_12_0_1 0
x_11_12_0_2 0
x_11_12_1_0 0
x_11_12_1_1 0
x_11_12_1_2 0
x_11_12_2_0 0
x_11_12_2_1 1
x_11_12_2_2 0
x_11_12_3_0 0
x_11_12_3_1 0
x_11_12_3_2 0
x_11_12_4_0 0
x_11_12_4_1 0
x_11_12_4_2 0
x_11_13_0_0 0
x_11_13_0_1 0
x_11_13_0_2 0
x_11_13_1_0 1.6769381874988716e-13
x_11_13_1_1 0
x_11_13_1_2 0
x_11_13_2_0 0
x_11_13_2_1 0
x_11_13_2_2 0
x_11_13_3_0 0
x_11_13_3_1 0
x_11_13_3_2 0
x_11_13_4_0 0
x_11_13_4_1 0
x_11_13_4_2 0
x_11_14_0_0 0
x_11_14_0_1 0
x_11_14_0_2 0
x_11_14_1_0 0
x_11_14_1_1 0
x_11_14_1_2 0
x_11_14_2_0 0
x_11_14_2_1 0
x_11_14_2_2 0
x_11_14_3_0 0
x_11_14_3_1 0
x_11_14_3_2 0
x_11_14_4_0 0
x_11_14_4_1 0
x_11_14_4_2 0
x_11_15_0_0 0
x_11_15_0_1 0
x_11_15_0_2 0
x_11_15_1_0 0
x_11_15_1_1 0
x_11_15_1_2 0
x_11_15_2_0 0
x_11_15_2_1 0
x_11_15_2_2 0
x_11_15_3_0 0
x_11_15_3_1 0
x_11_15_3_2 0
x_11_15_4_0 0
x_11_15_4_1 0
x_11_15_4_2 0
x_12_13_0_0 0
x_12_13_0_1 0
x_12_13_0_2 0
x_12_13_1_0 0
x_12_13_1_1 0
x_12_13_1_2 0
x_12_13_2_0 0
x_12_13_2_1 0
x_12_13_2_2 0
x_12_13_3_0 0
x_12_13_3_1 0
x_12_13_3_2 0
x_12_13_4_0 0
x_12_13_4_1 0
x_12_13_4_2 0
x_12_14_0_0 0
x_12_14_0_1 0
x_12_14_0_2 0
x_12_14_1_0 0
x_12_14_1_1 0
x_12_14_1_2 0
x_12_14_2_0 0
x_12_14_2_1 0
x_12_14_2_2 0
x_12_14_3_0 0
x_12_14_3_1 0
x_12_14_3_2 0
x_12_14_4_0 0
x_12_14_4_1 0
x_12_14_4_2 0
x_12_15_0_0 0
x_12_15_0_1 0
x_12_15_0_2 0
x_12_15_1_0 0
x_12_15_1_1 0
x_12_15_1_2 0
x_12_15_2_0 0
x_12_15_2_1 0
x_12_15_2_2 0
x_12_15_3_0 0
x_12_15_3_1 0
x_12_15_3_2 0
x_12_15_4_0 0
x_12_15_4_1 0
x_12_15_4_2 0
x_13_14_0_0 0
x_13_14_0_1 1.0000000000008948e+00
x_13_14_0_2 0
x_13_14_1_0 0
x_13_14_1_1 0
x_13_14_1_2 0
x_13_14_2_0 0
x_13_14_2_1 0
x_13_14_2_2 0
x_13_14_3_0 0
x_13_14_3_1 0
x_13_14_3_2 0
x_13_14_4_0 0
x_13_14_4_1 0
x_13_14_4_2 0
x_13_15_0_0 0
x_13_15_0_1 0
x_13_15_0_2 0
x_13_15_1_0 0
x_13_15_1_1 0
x_13_15_1_2 0
x_13_15_2_0 0
x_13_15_2_1 0
x_13_15_2_2 0
x_13_15_3_0 0
x_13_15_3_1 0
x_13_15_3_2 0
x_13_15_4_0 0
x_13_15_4_1 0
x_13_15_4_2 0
x_14_15_0_0 0
x_14_15_0_1 1.0000000000001898e+00
x_14_15_0_2 0
x_14_15_1_0 0
x_14_15_1_1 0
x_14_15_1_2 0
x_14_15_2_0 0
x_14_15_2_1 0
x_14_15_2_2 0
x_14_15_3_0 0
x_14_15_3_1 0
x_14_15_3_2 0
x_14_15_4_0 0
x_14_15_4_1 0
x_14_15_4_2 0
